62 63 70 74 75 78 79 80 88 91 92 92 92 92 99 106 107 109 110 111 116 118 120 120 123 123 123 125 126 127 130 135 137 139 140 141 142 143 144 146 147 152 155 155 159 160 164 165 166 168 168 169 171 174 177 179